1384
2
62, 66, 86, 51, 7, 27, 7, 54, 66, 71, 68, 58, 66, 82, 32, 25, 10, 75, 93, 20, 44, 45, 9, 33, 89, 73, 78, 87, 49, 37, 54
56, 29, 89, 46, 56, 20, 59, 94, 83, 50, 76, 24, 87, 15, 33, 50, 61, 60, 19, 79, 100, 29, 95, 25, 39, 35, 57, 99, 53, 25, 48
1, 2, 1, 1, 1, 1, 2, 2, 1, 2, 1, 2, 2, 2, 1, 2, 2, 1, 2, 2, 1, 1, 1, 2, 1, 1, 2, 1, 2, 1, 2